Cu24 H1
1.0
   4.3814391337902432    0.0000000000000000    2.5296246100046966
   1.4604793837036296    4.1308621199999997   -2.5296249493086078
   0.0000000000000000    0.0000000000000000   37.9443794999302568
Cu H
24 1
Selective dynamics
direct
   0.0000000000000000    0.5000000000000000    0.3333333333333333 F F F 
   0.5000000000000001    0.5000000000000000    0.3333333333333333 F F F 
   0.0000000000000000    0.0000000000000000    0.3333333333333333 F F F 
   0.5000000000000000    0.0000000000000000    0.3333333333333333 F F F 
   0.0000000000000000    0.5000000000000000    0.4000000000000000 F F F 
   0.5000000000000001    0.5000000000000000    0.4000000000000000 F F F 
   0.0000000000000000    0.0000000000000000    0.4000000000000000 F F F 
   0.5000000000000000    0.0000000000000000    0.4000000000000000 F F F 
   0.0000000000000000    0.5000000000000000    0.4666666666666667 F F F 
   0.5000000000000001    0.5000000000000000    0.4666666666666666 F F F 
   0.0000000000000000    0.0000000000000000    0.4666666666666666 F F F 
   0.5000000000000000    0.0000000000000000    0.4666666666666666 F F F 
   0.0000000000000000    0.5000000000000000    0.5333333333333333 F F F 
   0.5000000000000001    0.5000000000000000    0.5333333333333333 F F F 
   0.0000000000000000    0.0000000000000000    0.5333333333333333 F F F 
   0.5000000000000000    0.0000000000000000    0.5333333333333333 F F F 
   0.0000000000000000    0.5000000000000000    0.6000000000000000 T T T 
   0.5000000000000001    0.5000000000000000    0.6000000000000000 T T T 
   0.0000000000000000    0.0000000000000000    0.6000000000000000 T T T 
   0.5000000000000000    0.0000000000000000    0.6000000000000000 T T T 
   0.0000000000000000    0.5000000000000000    0.6666666666666666 T T T 
   0.5000000000000001    0.5000000000000000    0.6666666666666666 T T T 
   0.0000000000000000    0.0000000000000000    0.6666666666666665 T T T 
   0.5000000000000000    0.0000000000000000    0.6666666666666665 T T T 
  -0.2795301876199595    0.2795300643788710    0.7412080497373154 T T T 
