generated by phonopy
   1.0
    10.9025118000000010    0.0000000000000000    6.2945673000000006
     3.6341706000000000   10.2789851500000005    6.2945673000000006
     0.0000000000000000    0.0000000000000000    2.5178269200000001
C
  50
Direct
  0.1757943356980154  0.1750000000000000  0.8750000000000002
  0.3750000000000001  0.1750000000000000  0.8749999999999998
  0.5750000000000001  0.1750000000000000  0.8750000000000003
  0.7750000000000001  0.1750000000000000  0.8750000000000000
  0.9750000000000001  0.1750000000000000  0.8750000000000001
  0.1750000000000000  0.3750000000000000  0.8750000000000000
  0.3750000000000000  0.3750000000000000  0.8750000000000002
  0.5750000000000001  0.3750000000000000  0.8750000000000000
  0.7750000000000000  0.3750000000000000  0.8750000000000001
  0.9750000000000001  0.3750000000000000  0.8750000000000003
  0.1750000000000000  0.5750000000000000  0.8750000000000003
  0.3750000000000000  0.5750000000000000  0.8750000000000000
  0.5750000000000001  0.5750000000000000  0.8750000000000001
  0.7750000000000000  0.5750000000000000  0.8750000000000003
  0.9750000000000001  0.5750000000000000  0.8750000000000004
  0.1750000000000000  0.7749999999999999  0.8750000000000000
  0.3750000000000000  0.7749999999999999  0.8750000000000001
  0.5750000000000002  0.7749999999999999  0.8749999999999999
  0.7750000000000001  0.7749999999999999  0.8750000000000000
  0.9750000000000001  0.7749999999999999  0.8750000000000007
  0.1750000000000000  0.9750000000000000  0.8749999999999997
  0.3749999999999999  0.9750000000000000  0.8750000000000003
  0.5750000000000001  0.9750000000000000  0.8750000000000000
  0.7750000000000001  0.9750000000000000  0.8750000000000007
  0.9750000000000001  0.9750000000000000  0.8750000000000008
  0.0250000000000000  0.0250000000000000  0.1250000000000000
  0.2250000000000000  0.0250000000000000  0.1250000000000001
  0.4250000000000000  0.0250000000000000  0.1249999999999998
  0.6250000000000000  0.0250000000000000  0.1250000000000001
  0.8250000000000002  0.0250000000000000  0.1250000000000004
  0.0250000000000000  0.2250000000000000  0.1250000000000001
  0.2250000000000000  0.2250000000000000  0.1250000000000001
  0.4250000000000001  0.2250000000000000  0.1249999999999999
  0.6250000000000000  0.2250000000000000  0.1250000000000000
  0.8250000000000001  0.2250000000000000  0.1250000000000002
  0.0250000000000000  0.4250000000000000  0.1250000000000000
  0.2250000000000000  0.4250000000000000  0.1249999999999996
  0.4250000000000000  0.4250000000000000  0.1250000000000000
  0.6250000000000000  0.4250000000000000  0.1250000000000002
  0.8250000000000000  0.4250000000000000  0.1250000000000007
  0.0250000000000000  0.6249999999999999  0.1249999999999999
  0.2250000000000000  0.6249999999999999  0.1250000000000000
  0.4250000000000001  0.6249999999999999  0.1250000000000002
  0.6250000000000000  0.6249999999999999  0.1250000000000004
  0.8250000000000000  0.6249999999999999  0.1250000000000013
  0.0250000000000000  0.8250000000000000  0.1250000000000000
  0.2250000000000000  0.8250000000000000  0.1250000000000002
  0.4250000000000001  0.8250000000000000  0.1250000000000007
  0.6249999999999999  0.8250000000000000  0.1250000000000013
  0.8250000000000001  0.8250000000000000  0.1250000000000010
