Cr5 O2
1.0
   2.0993565900540827    0.0000000000000000    1.4844500662083349
  -2.0993564279049339    2.0993012851617476   -2.9688128575792905
   0.0000000000000000    0.0000000000000000   38.5956889682162512
Cr O
5 2
Selective dynamics
direct
   1.0000000000000000    0.0000000000000001    0.3461538461538461 F F F 
   1.0000000000000000    0.0000000000000001    0.4230769230769231 F F F 
   1.0000000000000000    0.0000000000000001    0.5000000000000000 F F F 
   1.0000000000000000    0.0000000000000001    0.5769230769230769 T T T 
   1.0000000000000000    0.0000000000000001    0.6538461538461540 T T T 
  -0.0000029086335787    0.4763343191361337    0.7271285852496356 T T T 
  -0.0000046647211019    0.7639211643145742    0.7713728532094878 T T T 
