Cr5
1.0
   2.0993565900540827    0.0000000000000000    1.4844500662083346
  -2.0993564279049348    2.0993012851617490   -2.9688128575792891
   0.0000000000000000    0.0000000000000000   38.5956889682162512
Cr
5
Selective dynamics
direct
   1.0000000000000000    0.0000000000000001    0.3461538461538461 F F F
   1.0000000000000000    0.0000000000000001    0.4230769230769231 F F F
   1.0000000000000000    0.0000000000000001    0.5000000000000000 F F F
   1.0000000000000000    0.0000000000000001    0.5769230769230769 T T T
   1.0000000000000000    0.0000000000000001    0.6538461538461540 T T T
