Cu6
1.0
   2.1907195668951216    0.0000000000000000    1.2648123050023483
   0.7302396918518148    2.0654310599999999   -1.2648124746543039
   0.0000000000000000    0.0000000000000000   37.9443794999302568
Cu
6
Selective dynamics
direct
   0.0000000000000000    0.0000000000000000    0.3333333333333333 F F F 
   0.0000000000000000    0.0000000000000000    0.4000000000000000 F F F 
   0.0000000000000000    0.0000000000000000    0.4666666666666667 F F F 
   0.0000000000000000    0.0000000000000000    0.5333333333333333 F F F 
   0.0000000000000000    0.0000000000000000    0.6000000000000000 T T T 
   0.0000000000000000    0.0000000000000000    0.6666666666666666 T T T 
